
Note: the module "julia" cannot be unloaded because it was not loaded.

2023/11/29
gurobi is now 11.0.0
previous version was 10.0.2
solving instance uflp nlass gunluk ../../../../../instances/uflp/gunluk/gunluk-30-60-3.txt square
The latest version of Julia in the `1.10` channel is 1.10.6+0.x64.linux.gnu. You currently have `1.10.5+0.x64.linux.gnu` installed. Run:

  juliaup update

in your terminal shell to install Julia 1.10.6+0.x64.linux.gnu and update the `1.10` channel to that version.
presolving:
(round 1, fast)       1800 del vars, 1800 del conss, 0 add conss, 1800 chg bounds, 0 chg sides, 0 chg coeffs, 0 upgd conss, 0 impls, 0 clqs
(round 2, exhaustive) 1800 del vars, 1800 del conss, 0 add conss, 1800 chg bounds, 0 chg sides, 0 chg coeffs, 1800 upgd conss, 0 impls, 0 clqs
   (0.3s) probing cycle finished: starting next cycle
   (0.3s) symmetry computation started: requiring (bin +, int +, cont +), (fixed: bin -, int -, cont -)
   (0.3s) no symmetry present (symcode time: 0.00)
presolving (3 rounds: 3 fast, 2 medium, 2 exhaustive):
 1800 deleted vars, 1800 deleted constraints, 0 added constraints, 1800 tightened bounds, 0 added holes, 0 changed sides, 0 changed coefficients
 1800 implications, 0 cliques
presolved problem has 3630 variables (30 bin, 0 int, 0 impl, 3600 cont) and 3660 constraints
   1800 constraints of type <varbound>
     60 constraints of type <linear>
   1800 constraints of type <nonlinear>
Presolving Time: 0.31

 time | node  | left  |LP iter|LP it/n|mem/heur|mdpt |vars |cons |rows |cuts |sepa|confs|strbr|  dualbound   | primalbound  |  gap   | compl. 
t 0.6s|     1 |     0 |  5950 |     - |  trysol|   0 |7230 |3660 |9060 |   0 |  0 |   0 |   0 |-3.433228e-03 | 1.702576e+03 |    Inf | unknown
  0.7s|     1 |     0 |  9135 |     - |    71M |   0 |7230 |3660 |9060 |   0 |  0 |   0 |   0 | 2.943750e+01 | 1.702576e+03 |5683.70%| unknown
L 1.1s|     1 |     0 | 13634 |     - |undercov|   0 |7230 |3660 |9060 |   0 |  0 |   0 |   0 | 2.943750e+01 | 5.703033e+02 |1837.34%| unknown
L 1.4s|     1 |     0 | 13634 |     - |undercov|   0 |7230 |3660 |9060 |   0 |  0 |   0 |   0 | 2.943750e+01 | 5.410873e+02 |1738.09%| unknown
  1.8s|     1 |     0 | 16255 |     - |    83M |   0 |7230 |3660 |9972 | 912 |  1 |   0 |   0 | 5.504567e+01 | 5.410873e+02 | 882.98%| unknown
  1.8s|     1 |     0 | 16255 |     - |    84M |   0 |7230 |3660 |9972 | 912 |  1 |   0 |   0 | 5.504567e+01 | 5.410873e+02 | 882.98%| unknown
  2.8s|     1 |     0 | 19638 |     - |    85M |   0 |7230 |3660 |  10k|1872 |  2 |   0 |   0 | 8.652874e+01 | 5.410873e+02 | 525.33%| unknown
  3.9s|     1 |     0 | 22796 |     - |    88M |   0 |7230 |3660 |  11k|2878 |  3 |   0 |   0 | 1.463421e+02 | 5.410873e+02 | 269.74%| unknown
  4.4s|     1 |     0 | 24533 |     - |    91M |   0 |7230 |3660 |  12k|3744 |  4 |   0 |   0 | 1.992600e+02 | 5.410873e+02 | 171.55%| unknown
t 4.5s|     1 |     0 | 24533 |     - |  trysol|   0 |7230 |3660 |  12k|3744 |  4 |   0 |   0 | 1.992600e+02 | 4.807526e+02 | 141.27%| unknown
  4.9s|     1 |     0 | 25832 |     - |    92M |   0 |7230 |3660 |  13k|4468 |  5 |   0 |   0 | 2.137831e+02 | 4.807526e+02 | 124.88%| unknown
t 4.9s|     1 |     0 | 25832 |     - |  trysol|   0 |7230 |3660 |  13k|4468 |  5 |   0 |   0 | 2.137831e+02 | 4.742118e+02 | 121.82%| unknown
  4.9s|     1 |     0 | 25832 |     - |    92M |   0 |7230 |3660 |  13k|4468 |  5 |   0 |   0 | 2.137831e+02 | 4.742118e+02 | 121.82%| unknown
  5.2s|     1 |     0 | 26711 |     - |    94M |   0 |7230 |3660 |  14k|5060 |  6 |   0 |   0 | 2.203513e+02 | 4.742118e+02 | 115.21%| unknown
t 5.2s|     1 |     0 | 26711 |     - |  trysol|   0 |7230 |3660 |  14k|5060 |  6 |   0 |   0 | 2.203513e+02 | 3.643409e+02 |  65.35%| unknown
 time | node  | left  |LP iter|LP it/n|mem/heur|mdpt |vars |cons |rows |cuts |sepa|confs|strbr|  dualbound   | primalbound  |  gap   | compl. 
  5.3s|     1 |     0 | 27305 |     - |    96M |   0 |7230 |3660 |  14k|5545 |  7 |   0 |   0 | 2.215329e+02 | 3.643409e+02 |  64.46%| unknown
  5.4s|     1 |     0 | 27305 |     - |    96M |   0 |7230 |3660 |  14k|5545 |  7 |   0 |   0 | 2.215329e+02 | 3.643409e+02 |  64.46%| unknown
  5.6s|     1 |     0 | 28151 |     - |    99M |   0 |7230 |3660 |  15k|6016 |  8 |   0 |   0 | 2.223833e+02 | 3.643409e+02 |  63.83%| unknown
t 5.6s|     1 |     0 | 28151 |     - |  trysol|   0 |7230 |3660 |  15k|6016 |  8 |   0 |   0 | 2.223833e+02 | 3.042219e+02 |  36.80%| unknown
  5.8s|     1 |     0 | 28707 |     - |   101M |   0 |7230 |3660 |  15k|6428 |  9 |   0 |   0 | 2.228590e+02 | 3.042219e+02 |  36.51%| unknown
  5.8s|     1 |     0 | 28707 |     - |   101M |   0 |7230 |3660 |  15k|6428 |  9 |   0 |   0 | 2.228590e+02 | 3.042219e+02 |  36.51%| unknown
  6.0s|     1 |     0 | 29259 |     - |   103M |   0 |7230 |3660 |  15k|6801 | 10 |   0 |   0 | 2.229926e+02 | 3.042219e+02 |  36.43%| unknown
  6.1s|     1 |     0 | 29633 |     - |   104M |   0 |7230 |3660 |  16k|7096 | 11 |   0 |   0 | 2.230973e+02 | 3.042219e+02 |  36.36%| unknown
t 6.1s|     1 |     0 | 29633 |     - |  trysol|   0 |7230 |3660 |  16k|7096 | 11 |   0 |   0 | 2.230973e+02 | 2.446104e+02 |   9.64%| unknown
  6.2s|     1 |     0 | 29888 |     - |   107M |   0 |7230 |3660 |  16k|7274 | 12 |   0 |   0 | 2.231249e+02 | 2.446104e+02 |   9.63%| unknown
t 6.2s|     1 |     0 | 29889 |     - |  trysol|   0 |7230 |3660 |  16k|7274 | 12 |   0 |   0 | 2.231249e+02 | 2.439272e+02 |   9.32%| unknown
  6.2s|     1 |     0 | 29889 |     - |   107M |   0 |7230 |3660 |  16k|7274 | 12 |   0 |   0 | 2.231249e+02 | 2.439272e+02 |   9.32%| unknown
  6.3s|     1 |     0 | 29892 |     - |   107M |   0 |7230 |3660 |9477 |7274 | 12 |   0 |   0 | 2.231249e+02 | 2.439272e+02 |   9.32%| unknown
  6.3s|     1 |     0 | 30070 |     - |   108M |   0 |7230 |3660 |9586 |7383 | 13 |   0 |   0 | 2.231335e+02 | 2.439272e+02 |   9.32%| unknown
  6.4s|     1 |     0 | 30147 |     - |   109M |   0 |7230 |3660 |9649 |7446 | 14 |   0 |   0 | 2.231354e+02 | 2.439272e+02 |   9.32%| unknown
 time | node  | left  |LP iter|LP it/n|mem/heur|mdpt |vars |cons |rows |cuts |sepa|confs|strbr|  dualbound   | primalbound  |  gap   | compl. 
  6.4s|     1 |     0 | 30273 |     - |   110M |   0 |7230 |3660 |9676 |7473 | 15 |   0 |   0 | 2.231596e+02 | 2.439272e+02 |   9.31%| unknown
  6.5s|     1 |     0 | 30342 |     - |   112M |   0 |7230 |3660 |9690 |7487 | 16 |   0 |   0 | 2.232050e+02 | 2.439272e+02 |   9.28%| unknown
  6.6s|     1 |     0 | 30436 |     - |   113M |   0 |7230 |3660 |9692 |7489 | 17 |   0 |   0 | 2.232284e+02 | 2.439272e+02 |   9.27%| unknown
  6.6s|     1 |     0 | 30505 |     - |   114M |   0 |7230 |3660 |6732 |7497 | 18 |   0 |   0 | 2.232528e+02 | 2.439272e+02 |   9.26%| unknown
  6.7s|     1 |     0 | 30551 |     - |   114M |   0 |7230 |3660 |6737 |7502 | 19 |   0 |   0 | 2.232536e+02 | 2.439272e+02 |   9.26%| unknown
  6.7s|     1 |     0 | 30581 |     - |   115M |   0 |7230 |3660 |6802 |7567 | 20 |   0 |   0 | 2.232541e+02 | 2.439272e+02 |   9.26%| unknown
  6.8s|     1 |     0 | 30793 |     - |   115M |   0 |7230 |3660 |6856 |7621 | 21 |   0 |   0 | 2.233061e+02 | 2.439272e+02 |   9.23%| unknown
  6.9s|     1 |     0 | 30842 |     - |   115M |   0 |7230 |3660 |6971 |7736 | 22 |   0 |   0 | 2.233082e+02 | 2.439272e+02 |   9.23%| unknown
  6.9s|     1 |     0 | 30888 |     - |   115M |   0 |7230 |3660 |6997 |7762 | 23 |   0 |   0 | 2.233092e+02 | 2.439272e+02 |   9.23%| unknown
  7.0s|     1 |     0 | 30933 |     - |   115M |   0 |7230 |3660 |6424 |7780 | 24 |   0 |   0 | 2.233103e+02 | 2.439272e+02 |   9.23%| unknown
  7.0s|     1 |     0 | 30952 |     - |   115M |   0 |7230 |3660 |6434 |7790 | 25 |   0 |   0 | 2.233120e+02 | 2.439272e+02 |   9.23%| unknown
  7.1s|     1 |     0 | 30984 |     - |   115M |   0 |7230 |3660 |6435 |7791 | 26 |   0 |   0 | 2.233123e+02 | 2.439272e+02 |   9.23%| unknown
  7.1s|     1 |     0 | 31051 |     - |   115M |   0 |7230 |3660 |6487 |7843 | 27 |   0 |   0 | 2.233173e+02 | 2.439272e+02 |   9.23%| unknown
  7.2s|     1 |     0 | 31118 |     - |   116M |   0 |7230 |3660 |6562 |7918 | 28 |   0 |   0 | 2.233267e+02 | 2.439272e+02 |   9.22%| unknown
  7.2s|     1 |     0 | 31172 |     - |   116M |   0 |7230 |3660 |6610 |7966 | 29 |   0 |   0 | 2.233297e+02 | 2.439272e+02 |   9.22%| unknown
 time | node  | left  |LP iter|LP it/n|mem/heur|mdpt |vars |cons |rows |cuts |sepa|confs|strbr|  dualbound   | primalbound  |  gap   | compl. 
  7.3s|     1 |     0 | 31219 |     - |   116M |   0 |7230 |3660 |6548 |8022 | 30 |   0 |   0 | 2.233303e+02 | 2.439272e+02 |   9.22%| unknown
  7.3s|     1 |     0 | 31230 |     - |   116M |   0 |7230 |3660 |6549 |8023 | 31 |   0 |   0 | 2.233321e+02 | 2.439272e+02 |   9.22%| unknown
  7.4s|     1 |     0 | 31241 |     - |   116M |   0 |7230 |3660 |6550 |8024 | 32 |   0 |   0 | 2.233343e+02 | 2.439272e+02 |   9.22%| unknown
L 9.3s|     1 |     0 | 32100 |     - |    rens|   0 |7230 |3600 |6550 |8024 | 32 |   0 |   0 | 2.233343e+02 | 2.268488e+02 |   1.57%| unknown
  9.6s|     1 |     0 | 32101 |     - |   116M |   0 |7230 |3600 |6319 |8024 | 32 |   0 |   0 | 2.233343e+02 | 2.268488e+02 |   1.57%| unknown
  9.7s|     1 |     0 | 32102 |     - |   116M |   0 |7230 |3600 |6019 |8024 | 32 |   0 |   0 | 2.233343e+02 | 2.268488e+02 |   1.57%| unknown
  9.7s|     1 |     0 | 32119 |     - |   116M |   0 |7230 |3600 |6021 |8026 | 33 |   0 |   0 | 2.233358e+02 | 2.268488e+02 |   1.57%| unknown
  9.7s|     1 |     0 | 32157 |     - |   116M |   0 |7230 |3600 |6022 |8027 | 34 |   0 |   0 | 2.233450e+02 | 2.268488e+02 |   1.57%| unknown
(run 1, node 1) restarting after 6 global fixings of integer variables

(restart) converted 23 cuts from the global cut pool into linear constraints

presolving:
(round 1, fast)       3606 del vars, 0 del conss, 0 add conss, 0 chg bounds, 0 chg sides, 0 chg coeffs, 0 upgd conss, 1800 impls, 0 clqs
presolving (2 rounds: 2 fast, 1 medium, 1 exhaustive):
 3606 deleted vars, 0 deleted constraints, 0 added constraints, 0 tightened bounds, 0 added holes, 0 changed sides, 0 changed coefficients
 1800 implications, 0 cliques
presolved problem has 3624 variables (24 bin, 0 int, 0 impl, 3600 cont) and 3323 constraints
   1440 constraints of type <varbound>
     83 constraints of type <linear>
   1800 constraints of type <nonlinear>
Presolving Time: 0.49
transformed 13/13 original solutions to the transformed problem space

 time | node  | left  |LP iter|LP it/n|mem/heur|mdpt |vars |cons |rows |cuts |sepa|confs|strbr|  dualbound   | primalbound  |  gap   | compl. 
 10.2s|     1 |     0 | 35172 |     - |   123M |   0 |7224 |3323 |8723 |   0 |  0 |   0 |   0 | 2.233450e+02 | 2.268488e+02 |   1.57%| unknown
 10.5s|     1 |     0 | 37459 |     - |   125M |   0 |7224 |3323 |9683 | 960 |  1 |   0 |   0 | 2.233450e+02 | 2.268488e+02 |   1.57%| unknown
 11.0s|     1 |     0 | 39991 |     - |   126M |   0 |7224 |3323 |  10k|2031 |  2 |   0 |   0 | 2.233450e+02 | 2.268488e+02 |   1.57%| unknown
 11.5s|     1 |     0 | 41880 |     - |   127M |   0 |7224 |3323 |  11k|2960 |  3 |   0 |   0 | 2.233450e+02 | 2.268488e+02 |   1.57%| unknown
 11.9s|     1 |     0 | 43066 |     - |   129M |   0 |7224 |3323 |  12k|3673 |  4 |   0 |   0 | 2.233450e+02 | 2.268488e+02 |   1.57%| unknown
 12.2s|     1 |     0 | 43999 |     - |   130M |   0 |7224 |3323 |  12k|4247 |  5 |   0 |   0 | 2.233450e+02 | 2.268488e+02 |   1.57%| unknown
 12.5s|     1 |     0 | 45026 |     - |   132M |   0 |7224 |3323 |  13k|4822 |  6 |   0 |   0 | 2.233450e+02 | 2.268488e+02 |   1.57%| unknown
 12.9s|     1 |     0 | 46065 |     - |   133M |   0 |7224 |3323 |  14k|5396 |  7 |   0 |   0 | 2.233450e+02 | 2.268488e+02 |   1.57%| unknown
 13.1s|     1 |     0 | 46886 |     - |   135M |   0 |7224 |3323 |  14k|5915 |  8 |   0 |   0 | 2.233450e+02 | 2.268488e+02 |   1.57%| unknown
 13.3s|     1 |     0 | 47617 |     - |   136M |   0 |7224 |3323 |  15k|6343 |  9 |   0 |   0 | 2.233450e+02 | 2.268488e+02 |   1.57%| unknown
 13.5s|     1 |     0 | 48084 |     - |   138M |   0 |7224 |3323 |  15k|6662 | 10 |   0 |   0 | 2.233450e+02 | 2.268488e+02 |   1.57%| unknown
 13.6s|     1 |     0 | 48557 |     - |   139M |   0 |7224 |3323 |  15k|6948 | 11 |   0 |   0 | 2.233450e+02 | 2.268488e+02 |   1.57%| unknown
 13.7s|     1 |     0 | 48853 |     - |   141M |   0 |7224 |3323 |  15k|7214 | 12 |   0 |   0 | 2.233450e+02 | 2.268488e+02 |   1.57%| unknown
 13.8s|     1 |     0 | 49007 |     - |   143M |   0 |7224 |3323 |  16k|7342 | 13 |   0 |   0 | 2.233450e+02 | 2.268488e+02 |   1.57%| unknown
 13.8s|     1 |     0 | 49099 |     - |   145M |   0 |7224 |3323 |9602 |7412 | 14 |   0 |   0 | 2.233450e+02 | 2.268488e+02 |   1.57%| unknown
 time | node  | left  |LP iter|LP it/n|mem/heur|mdpt |vars |cons |rows |cuts |sepa|confs|strbr|  dualbound   | primalbound  |  gap   | compl. 
 13.9s|     1 |     0 | 49201 |     - |   146M |   0 |7224 |3323 |9636 |7446 | 15 |   0 |   0 | 2.233450e+02 | 2.268488e+02 |   1.57%| unknown
 14.0s|     1 |     0 | 49282 |     - |   147M |   0 |7224 |3323 |9704 |7514 | 16 |   0 |   0 | 2.233450e+02 | 2.268488e+02 |   1.57%| unknown
 14.0s|     1 |     0 | 49374 |     - |   148M |   0 |7224 |3323 |9765 |7575 | 17 |   0 |   0 | 2.233450e+02 | 2.268488e+02 |   1.57%| unknown
 14.1s|     1 |     0 | 49480 |     - |   149M |   0 |7224 |3323 |9833 |7643 | 18 |   0 |   0 | 2.233450e+02 | 2.268488e+02 |   1.57%| unknown
 14.2s|     1 |     0 | 49496 |     - |   150M |   0 |7224 |3323 |9855 |7665 | 19 |   0 |   0 | 2.233450e+02 | 2.268488e+02 |   1.57%| unknown
 14.3s|     1 |     0 | 49699 |     - |   151M |   0 |7224 |3323 |6756 |7672 | 20 |   0 |   0 | 2.233450e+02 | 2.268488e+02 |   1.57%| unknown
 14.3s|     1 |     0 | 49728 |     - |   151M |   0 |7224 |3323 |6771 |7687 | 21 |   0 |   0 | 2.233450e+02 | 2.268488e+02 |   1.57%| unknown
 14.3s|     1 |     0 | 49748 |     - |   151M |   0 |7224 |3323 |6774 |7690 | 22 |   0 |   0 | 2.233450e+02 | 2.268488e+02 |   1.57%| unknown
 14.4s|     1 |     0 | 49758 |     - |   151M |   0 |7224 |3323 |6782 |7698 | 23 |   0 |   0 | 2.233450e+02 | 2.268488e+02 |   1.57%| unknown
 14.4s|     1 |     0 | 49764 |     - |   151M |   0 |7224 |3323 |6786 |7702 | 24 |   0 |   0 | 2.233450e+02 | 2.268488e+02 |   1.57%| unknown
 14.5s|     1 |     0 | 49771 |     - |   151M |   0 |7224 |3323 |6795 |7711 | 25 |   0 |   0 | 2.233450e+02 | 2.268488e+02 |   1.57%| unknown
 14.5s|     1 |     0 | 49774 |     - |   151M |   0 |7224 |3323 |5982 |7715 | 26 |   0 |   0 | 2.233450e+02 | 2.268488e+02 |   1.57%| unknown
 14.5s|     1 |     0 | 49776 |     - |   151M |   0 |7224 |3323 |5984 |7717 | 27 |   0 |   0 | 2.233450e+02 | 2.268488e+02 |   1.57%| unknown
 15.8s|     1 |     2 | 49985 |     - |   152M |   0 |7224 |3323 |5984 |7717 | 29 |   0 |   1 | 2.233450e+02 | 2.268488e+02 |   1.57%| unknown
*20.2s|    13 |     6 | 58398 |1187.0 |    LP  |   8 |7224 |3081 |7807 |  14k| 21 |3426 |   5 | 2.268321e+02 | 2.268488e+02 |   0.01%|  90.68%

SCIP Status        : problem is solved [optimal solution found]
Solving Time (sec) : 20.29
Solving Nodes      : 19 (total of 20 nodes in 2 runs)
Primal Bound       : +2.26848799502985e+02 (22 solutions)
Dual Bound         : +2.26848799502985e+02
Gap                : 0.00 %
Generating Gunluk and Lee data file ../../../../../instances/uflp/gunluk/gunluk-30-60-3.txt
primal_bound = 226.84879950298506, dual_bound = 226.84879950298506, gap = 0.0, time = 22.58
